p tw 82 448
0 1
0 2
0 3
0 4
0 5
0 15
0 37
0 38
0 39
0 40
0 10
0 11
0 63
0 12
0 24
0 41
0 64
0 65
1 2
1 3
1 4
1 5
1 17
1 18
1 22
1 30
1 31
1 10
1 49
1 63
1 72
1 73
1 11
1 67
1 71
1 76
1 79
1 48
2 3
2 4
2 5
2 12
2 13
2 14
2 15
2 32
2 51
2 52
2 53
2 54
2 21
2 29
2 46
2 56
2 57
2 16
2 40
2 64
2 65
2 6
2 35
2 71
2 72
3 4
3 5
3 25
3 26
3 27
3 28
3 29
3 34
3 46
3 47
3 48
3 10
3 11
3 63
3 8
3 15
3 33
3 62
3 66
4 5
4 6
4 7
4 26
4 50
4 51
4 10
4 11
4 63
5 19
5 21
5 22
5 23
5 24
6 7
6 8
6 9
6 10
6 11
6 26
6 50
6 51
6 35
6 71
6 72
7 8
7 9
7 10
7 11
7 35
7 40
7 41
7 44
7 49
7 26
7 50
7 51
7 23
7 28
7 33
7 74
7 80
8 9
8 10
8 11
8 15
8 33
8 62
8 66
9 10
9 11
9 46
9 52
9 75
9 77
9 78
10 11
10 32
10 33
10 34
10 35
10 36
10 63
10 45
10 67
10 68
10 69
10 70
10 49
10 72
10 73
10 30
10 48
11 63
11 67
11 71
11 76
11 79
12 13
12 14
12 15
12 30
12 36
12 42
12 55
12 24
12 41
12 64
12 65
13 14
13 15
14 15
14 18
14 37
14 41
14 51
14 67
14 25
14 54
14 66
14 73
14 81
15 37
15 38
15 39
15 40
15 44
15 46
15 51
15 61
15 33
15 62
15 66
16 17
16 18
16 19
16 20
16 40
16 54
16 64
16 65
17 18
17 19
17 20
17 22
17 30
17 31
18 19
18 20
18 22
18 30
18 31
18 37
18 41
18 51
18 67
19 20
19 21
19 22
19 23
19 24
20 25
20 30
20 35
20 43
20 62
21 22
21 23
21 24
21 29
21 46
21 56
21 57
22 23
22 24
22 30
22 31
23 24
23 28
23 33
23 74
23 80
24 41
24 64
24 65
25 26
25 27
25 28
25 29
25 34
25 46
25 47
25 48
25 30
25 35
25 43
25 62
25 54
25 66
25 73
25 81
26 27
26 28
26 29
26 50
26 51
27 28
27 29
28 29
28 33
28 74
28 80
29 46
29 56
29 57
30 31
30 36
30 42
30 55
30 50
30 57
30 58
30 59
30 60
30 35
30 43
30 62
30 48
30 67
32 33
32 34
32 35
32 36
32 51
32 52
32 53
32 54
33 34
33 35
33 36
33 62
33 66
33 74
33 80
34 35
34 36
34 46
34 47
34 48
35 36
35 40
35 41
35 44
35 49
35 43
35 62
35 51
35 71
35 72
36 42
36 55
37 38
37 39
37 40
37 41
37 51
37 67
38 39
38 40
39 40
40 41
40 42
40 43
40 44
40 45
40 49
40 54
40 64
40 65
41 42
41 43
41 44
41 45
41 49
41 64
41 65
41 51
41 67
42 43
42 44
42 45
42 55
43 44
43 45
43 62
44 45
44 49
44 46
44 51
44 61
45 67
45 68
45 69
45 70
46 47
46 48
46 56
46 57
46 51
46 61
46 52
46 75
46 77
46 78
47 48
48 67
49 63
49 72
49 73
49 74
49 75
49 76
49 77
49 78
50 51
50 57
50 58
50 59
50 60
51 52
51 53
51 54
51 61
51 67
51 71
51 72
52 53
52 54
52 75
52 77
52 78
53 54
54 64
54 65
54 66
54 73
54 81
56 57
57 58
57 59
57 60
58 59
58 60
59 60
62 66
63 72
63 73
64 65
66 73
66 81
67 68
67 69
67 70
67 71
67 76
67 79
68 69
68 70
69 70
71 72
71 76
71 79
72 73
73 81
74 75
74 76
74 77
74 78
74 80
75 76
75 77
75 78
76 77
76 78
76 79
77 78
